\ENCODING=ISO-8859-1
\Problem name: TSP

Minimize
 obj1: 0 x1 + 2.60870815558678 x2 + 3.29590668099993 x3 + 1.76485756548113 x4
       + 3.19089799621674 x5 + 2.8995400775354 x6 + 2.60870815558678 x7 + 0 x8
       + 4.7049121511634 x9 + 2.46343861854949 x10 + 4.87673818490033 x11
       + 3.20881539319871 x12 + 3.29590668099993 x13 + 4.7049121511634 x14
       + 0 x15 + 2.24453078756519 x16 + 0.521317739003767 x17
       + 1.85176725465216 x18 + 1.76485756548113 x19 + 2.46343861854949 x20
       + 2.24453078756519 x21 + 0 x22 + 2.42491085438785 x23
       + 1.15724766977946 x24 + 3.19089799621674 x25 + 4.87673818490033 x26
       + 0.521317739003767 x27 + 2.42491085438785 x28 + 0 x29
       + 2.25119920557955 x30 + 2.8995400775354 x31 + 3.20881539319871 x32
       + 1.85176725465216 x33 + 1.15724766977946 x34 + 2.25119920557955 x35
       + 0 x36
Subject To
 c1:  x7 + x13 + x19 + x25 + x31  = 1
 c2:  x2 + x14 + x20 + x26 + x32  = 1
 c3:  x3 + x9 + x21 + x27 + x33  = 1
 c4:  x4 + x10 + x16 + x28 + x34  = 1
 c5:  x5 + x11 + x17 + x23 + x35  = 1
 c6:  x6 + x12 + x18 + x24 + x30  = 1
 c7:  x2 + x3 + x4 + x5 + x6  = 1
 c8:  x7 + x9 + x10 + x11 + x12  = 1
 c9:  x13 + x14 + x16 + x17 + x18  = 1
 c10: x19 + x20 + x21 + x23 + x24  = 1
 c11: x25 + x26 + x27 + x28 + x30  = 1
 c12: x31 + x32 + x33 + x34 + x35  = 1
 c13: 5 x9 + x37 - x38 <= 4
 c14: 5 x10 + x37 - x39 <= 4
 c15: 5 x11 + x37 - x40 <= 4
 c16: 5 x12 + x37 - x41 <= 4
 c17: 5 x14 - x37 + x38 <= 4
 c18: 5 x16 + x38 - x39 <= 4
 c19: 5 x17 + x38 - x40 <= 4
 c20: 5 x18 + x38 - x41 <= 4
 c21: 5 x20 - x37 + x39 <= 4
 c22: 5 x21 - x38 + x39 <= 4
 c23: 5 x23 + x39 - x40 <= 4
 c24: 5 x24 + x39 - x41 <= 4
 c25: 5 x26 - x37 + x40 <= 4
 c26: 5 x27 - x38 + x40 <= 4
 c27: 5 x28 - x39 + x40 <= 4
 c28: 5 x30 + x40 - x41 <= 4
 c29: 5 x32 - x37 + x41 <= 4
 c30: 5 x33 - x38 + x41 <= 4
 c31: 5 x34 - x39 + x41 <= 4
 c32: 5 x35 - x40 + x41 <= 4
 c33: x2 + x7 <= 1
 c34: x3 + x13 <= 1
 c35: x4 + x19 <= 1
 c36: x5 + x25 <= 1
 c37: x6 + x31 <= 1
 c38: x9 + x14 <= 1
 c39: x10 + x20 <= 1
 c40: x11 + x26 <= 1
 c41: x12 + x32 <= 1
 c42: x16 + x21 <= 1
 c43: x17 + x27 <= 1
 c44: x18 + x33 <= 1
 c45: x23 + x28 <= 1
 c46: x24 + x34 <= 1
 c47: x30 + x35 <= 1
Bounds
      x1 = 0
 0 <= x2 <= 1
 0 <= x3 <= 1
 0 <= x4 <= 1
 0 <= x5 <= 1
 0 <= x6 <= 1
 0 <= x7 <= 1
      x8 = 0
 0 <= x9 <= 1
 0 <= x10 <= 1
 0 <= x11 <= 1
 0 <= x12 <= 1
 0 <= x13 <= 1
 0 <= x14 <= 1
      x15 = 0
 0 <= x16 <= 1
 0 <= x17 <= 1
 0 <= x18 <= 1
 0 <= x19 <= 1
 0 <= x20 <= 1
 0 <= x21 <= 1
      x22 = 0
 0 <= x23 <= 1
 0 <= x24 <= 1
 0 <= x25 <= 1
 0 <= x26 <= 1
 0 <= x27 <= 1
 0 <= x28 <= 1
      x29 = 0
 0 <= x30 <= 1
 0 <= x31 <= 1
 0 <= x32 <= 1
 0 <= x33 <= 1
 0 <= x34 <= 1
 0 <= x35 <= 1
      x36 = 0
 1 <= x37 <= 5
 1 <= x38 <= 5
 1 <= x39 <= 5
 1 <= x40 <= 5
 1 <= x41 <= 5
Binaries
 x1  x2  x3  x4  x5  x6  x7  x8  x9  x10  x11  x12  x13  x14  x15  x16  x17 
 x18  x19  x20  x21  x22  x23  x24  x25  x26  x27  x28  x29  x30  x31  x32 
 x33  x34  x35  x36 
Generals
 x37  x38  x39  x40  x41 
End
